(set-logic QF_BV)
(declare-fun _substvar_671_ () (_ BitVec 4))
(declare-fun _substvar_643_ () (_ BitVec 4))
(declare-fun _substvar_667_ () (_ BitVec 4))
(declare-fun _substvar_654_ () (_ BitVec 4))
(declare-fun _substvar_684_ () (_ BitVec 4))
(declare-fun _substvar_641_ () (_ BitVec 4))
(declare-fun _substvar_669_ () (_ BitVec 4))
(declare-fun _substvar_626_ () (_ BitVec 4))
(declare-fun _substvar_664_ () (_ BitVec 4))
(declare-fun _substvar_682_ () (_ BitVec 4))
(declare-fun _substvar_658_ () (_ BitVec 4))
(declare-fun _substvar_2173_ () Bool)
(declare-fun _substvar_705_ () (_ BitVec 33))
(declare-fun _substvar_531_ () (_ BitVec 4))
(declare-fun _substvar_1057_ () Bool)
(declare-fun _substvar_638_ () (_ BitVec 4))
(declare-fun _substvar_656_ () (_ BitVec 4))
(declare-fun _substvar_675_ () (_ BitVec 4))
(declare-fun _substvar_679_ () (_ BitVec 4))
(declare-fun _substvar_1031_ () Bool)
(declare-fun _substvar_677_ () (_ BitVec 4))
(declare-fun _substvar_695_ () (_ BitVec 4))
(declare-fun _substvar_532_ () (_ BitVec 4))
(declare-fun _substvar_700_ () (_ BitVec 4))
(declare-fun _substvar_730_ () (_ BitVec 33))
(declare-fun _substvar_625_ () (_ BitVec 4))
(declare-fun _substvar_661_ () (_ BitVec 4))
(declare-fun _substvar_624_ () (_ BitVec 4))
(assert (let ( (?v_2 (= _substvar_638_ _substvar_626_)) (?v_3 (= _substvar_654_ _substvar_625_)) (?v_4 (= _substvar_664_ _substvar_624_)) (?v_5 (= _substvar_677_ _substvar_675_)) (?v_27 ((_ extract 19 16) _substvar_705_)) (?v_28 ((_ extract 15 12) _substvar_705_)) (?v_29 ((_ extract 11 8) _substvar_705_)) (?v_30 ((_ extract 7 4) _substvar_705_)) (?v_34 (= _substvar_643_ _substvar_626_)) (?v_35 (= _substvar_658_ _substvar_625_)) (?v_36 (= _substvar_669_ _substvar_624_)) (?v_37 (= _substvar_682_ _substvar_675_)) (?v_54 ((_ extract 27 24) _substvar_730_)) (?v_55 ((_ extract 23 20) _substvar_730_)) (?v_56 ((_ extract 19 16) _substvar_730_)) (?v_57 ((_ extract 15 12) _substvar_730_)) (?v_58 ((_ extract 11 8) _substvar_730_)) (?v_59 ((_ extract 7 4) _substvar_730_))) (and true true true (and true true true ?v_2 ?v_3 ?v_4 ?v_5 _substvar_1057_) (= _substvar_705_ (concat (concat (concat (concat (concat (_ bv0 13) _substvar_638_) _substvar_654_) _substvar_664_) _substvar_677_) (_ bv0 4))) (and true true true _substvar_2173_ (= _substvar_641_ ?v_27) (= _substvar_656_ ?v_28) (= _substvar_667_ ?v_29) (= _substvar_679_ ?v_30) true) (= _substvar_532_ (bvor (bvor (bvor (bvor (bvor (_ bv0 4) _substvar_641_) _substvar_656_) _substvar_667_) _substvar_679_) (_ bv0 4))) true true true (and true true true ?v_34 ?v_35 ?v_36 ?v_37 true) (ite _substvar_1031_ (= _substvar_730_ (concat (concat (concat (concat (concat (_ bv0 13) _substvar_643_) _substvar_658_) _substvar_669_) _substvar_682_) _substvar_695_)) (= _substvar_730_ (concat (concat (concat (concat (concat (concat (concat (concat _substvar_695_ (_ bv0 1)) _substvar_682_) _substvar_669_) _substvar_658_) _substvar_643_) (_ bv0 4)) (_ bv0 4)) (_ bv0 4)))) (and true true (= (_ bv0 4) ?v_54) (= (_ bv0 4) ?v_55) (= (_ bv0 4) ?v_56) (= _substvar_661_ ?v_57) (= _substvar_671_ ?v_58) (= _substvar_684_ ?v_59) (= _substvar_700_ (_ bv0 4))) (= _substvar_531_ (bvor (bvor (bvor (bvor (_ bv0 4) _substvar_661_) _substvar_671_) _substvar_684_) _substvar_700_)) true (not (= _substvar_532_ _substvar_531_)))))
(check-sat)
(exit)
